nApps = 36
nRes = 6
nActs = 78
nNetworks = 4

assignmentToResources = [2,1,1,1,1,1,1,2,2,2,2,1,1,2,1,2,1,2,1,1,1,2,2,2,1,1,2,1,1,1,3,3,3,3,3,4,4,3,3,4,4,3,3,4,3,3,4,5,3,6,3,6,4,5,4,5,4,5,3,6,3,6,6,6,6,6,6,5,5,6,6,5,5,6,6,5,6,6];

processingTimes = [120,128,104,128,120,136,136,48,112,120,48,104,120,64,136,128,120,96,64,64,120,136,120,64,120,120,72,136,128,56,500,3,4,4,4,3,1500,4,4,3,750,3,3,4,500,4,13,13,4,4,500,500,500,500,1500,1500,3,3,3,3,4,4,500,3,4,4,4,3,1500,4,4,3,750,3,3,4,500,4];

periods = [2000,10000,10000,10000,10000,10000,10000,10000,10000,10000,10000,10000,10000,10000,10000,5000,10000,10000,10000,10000,5000,10000,2000,10000,10000,10000,10000,10000,10000,1000,10000,10000,10000,10000,10000,10000,10000,10000,10000,5000,5000,5000,5000,10000,10000,1000,10000,10000,10000,10000,10000,10000,10000,10000,10000,10000,10000,10000,10000,10000,10000,10000,10000,10000,10000,10000,10000,10000,10000,10000,10000,5000,5000,5000,5000,10000,10000,1000];

assignmentToClusters = [1,2,3,4,5,6,7,8,9,10,11,11,9,12,13,14,15,5,5,5,16,5,17,8,18,8,11,12,19,20,21,22,23,24,25,26,27,28,29,30,31,32,33,34,35,36,5,5,5,5,8,8,8,8,9,9,11,11,11,11,12,12,21,22,23,24,25,26,27,28,29,30,31,32,33,34,35,36];

precedenceAdjList = [[],[],[],[],[47],[],[],[51],[],[],[],[57],[55],[61],[],[],[],[],[19],[4],[],[49],[],[],[],[53],[59],[],[],[],[],[],[],[],[],[],[],[],[],[],[],[],[],[],[],[],[17],[46],[4],[48],[25],[50],[23],[52],[8],[54],[10],[56],[11],[58],[27],[60],[30],[31],[32],[33],[34],[35],[36],[37],[38],[39],[40],[41],[42],[43],[44],[45]];